decision_x1=[0,7];
decision_x2=[0,7];
decision_x3=[0,7];
decision_x4=[0,7];
decision_x5=[0,7];
decision_x6=[0,7];
decision_x7=[0,7];
decision_x8=[0,7];
decision_x9=[0,7];
decision_x10=[0,7];
decision_x11=[0,7];
decision_x12=[0,7];
decision_x13=[0,7];
decision_x14=[0,7];
decision_x15=[0,7];
decision_x16=[0,7];
decision_x17=[0,7];
decision_x18=[0,7];
decision_x19=[0,7];
decision_x20=[0,7];
random_y1=[0,7];
random_y2=[0,7];
random_y3=[0,7];
random_y4=[0,7];
random_y5=[0,7];
random_y6=[0,7];
random_y7=[0,7];
random_y8=[0,7];
random_y9=[0,7];
constraint_x2_x1=[
0,0,4.3|
0,1,0.21|
0,2,6.3|
0,3,6.6|
0,4,9.3|
0,5,0.95|
0,6,0.28|
0,7,4.4|
1,0,3.1|
1,1,3.6|
1,2,4.6|
1,3,6.2|
1,4,3.2|
1,5,3.8|
1,6,2.8|
1,7,9.9|
2,0,1.6|
2,1,4.7|
2,2,8|
2,3,8|
2,4,4.3|
2,5,4.1|
2,6,6.2|
2,7,3.2|
3,0,8.7|
3,1,6.7|
3,2,2|
3,3,4.3|
3,4,2.5|
3,5,6.4|
3,6,5.2|
3,7,7.2|
4,0,7.6|
4,1,1.3|
4,2,2.6|
4,3,7.2|
4,4,5.5|
4,5,6.4|
4,6,4.6|
4,7,7.6|
5,0,9.9|
5,1,2.6|
5,2,3.2|
5,3,9|
5,4,5.8|
5,5,1.5|
5,6,6.2|
5,7,4.5|
6,0,5.3|
6,1,7.8|
6,2,0.66|
6,3,5.1|
6,4,1.4|
6,5,6.9|
6,6,8.9|
6,7,5.2|
7,0,7.9|
7,1,6.8|
7,2,6.3|
7,3,8.8|
7,4,4.9|
7,5,10|
7,6,5.9|
7,7,2.7|
];
constraint_x3_x2=[
0,0,5.2|
0,1,9.9|
0,2,6.4|
0,3,6.3|
0,4,1.6|
0,5,5.8|
0,6,7.6|
0,7,3.5|
1,0,6.3|
1,1,9|
1,2,9.9|
1,3,9.4|
1,4,8.9|
1,5,6.4|
1,6,7.6|
1,7,7.5|
2,0,9.8|
2,1,9.4|
2,2,6.2|
2,3,4.4|
2,4,8.3|
2,5,4.5|
2,6,1.4|
2,7,7.7|
3,0,8.4|
3,1,9.7|
3,2,4|
3,3,9.8|
3,4,5.6|
3,5,9.2|
3,6,8.2|
3,7,0.72|
4,0,7.6|
4,1,2.2|
4,2,7|
4,3,8.3|
4,4,7.4|
4,5,1.6|
4,6,1.3|
4,7,5.5|
5,0,4.8|
5,1,6.2|
5,2,1.7|
5,3,6.4|
5,4,8.4|
5,5,5.2|
5,6,4.7|
5,7,6.8|
6,0,0.14|
6,1,1.1|
6,2,4.8|
6,3,2.6|
6,4,3.2|
6,5,6.6|
6,6,0.41|
6,7,3.2|
7,0,7|
7,1,9.8|
7,2,4.9|
7,3,6.4|
7,4,4.2|
7,5,2.3|
7,6,6.5|
7,7,9.7|
];
constraint_x4_x3=[
0,0,6|
0,1,2.6|
0,2,2.3|
0,3,6.2|
0,4,9.1|
0,5,9.1|
0,6,5.3|
0,7,4.6|
1,0,6.2|
1,1,0.53|
1,2,2.2|
1,3,7.6|
1,4,1.6|
1,5,9.3|
1,6,1.9|
1,7,3.3|
2,0,1.8|
2,1,10|
2,2,2.5|
2,3,7.4|
2,4,9.8|
2,5,6.5|
2,6,6.6|
2,7,4.8|
3,0,4.3|
3,1,6.3|
3,2,5.2|
3,3,1.1|
3,4,5.1|
3,5,0.83|
3,6,9.3|
3,7,2.8|
4,0,4.1|
4,1,3|
4,2,0.33|
4,3,8.1|
4,4,5.2|
4,5,5.2|
4,6,0.37|
4,7,2.3|
5,0,7.7|
5,1,6.9|
5,2,3.8|
5,3,8.7|
5,4,3.6|
5,5,5.8|
5,6,5.1|
5,7,5.9|
6,0,1.4|
6,1,8.1|
6,2,8.5|
6,3,1.8|
6,4,6.1|
6,5,9|
6,6,3.1|
6,7,7.4|
7,0,0.01|
7,1,7|
7,2,2|
7,3,1.4|
7,4,10|
7,5,6.9|
7,6,8.5|
7,7,7|
];
constraint_x5_x1=[
0,0,4.4|
0,1,3.6|
0,2,5.7|
0,3,0.48|
0,4,0.11|
0,5,3.5|
0,6,3.6|
0,7,9.6|
1,0,7.5|
1,1,1.5|
1,2,3.8|
1,3,4.8|
1,4,2.6|
1,5,5.9|
1,6,0.7|
1,7,7|
2,0,8.3|
2,1,8.2|
2,2,9|
2,3,2.8|
2,4,7|
2,5,6.4|
2,6,0.16|
2,7,4.7|
3,0,5.6|
3,1,1.5|
3,2,9.3|
3,3,7.9|
3,4,9.3|
3,5,5|
3,6,9.9|
3,7,5.2|
4,0,7|
4,1,6.1|
4,2,7.2|
4,3,5.8|
4,4,1.7|
4,5,2.7|
4,6,6.6|
4,7,2.3|
5,0,1.4|
5,1,5.2|
5,2,5.4|
5,3,0.079|
5,4,8.6|
5,5,2.5|
5,6,6.7|
5,7,9.5|
6,0,1.7|
6,1,8.6|
6,2,3.9|
6,3,5.4|
6,4,2.4|
6,5,7.1|
6,6,5.3|
6,7,5.2|
7,0,3.6|
7,1,9.2|
7,2,5.6|
7,3,8.7|
7,4,5.4|
7,5,0.82|
7,6,4.5|
7,7,1.5|
];
constraint_x6_x2=[
0,0,4|
0,1,3.8|
0,2,3.8|
0,3,4.3|
0,4,1.3|
0,5,0.69|
0,6,8.8|
0,7,7|
1,0,1|
1,1,6.4|
1,2,6.8|
1,3,3.2|
1,4,2.4|
1,5,8.6|
1,6,4|
1,7,0.093|
2,0,2.6|
2,1,9.3|
2,2,0.25|
2,3,0.74|
2,4,7.8|
2,5,9.3|
2,6,6|
2,7,7.6|
3,0,7.9|
3,1,9.5|
3,2,0.44|
3,3,8.5|
3,4,8.1|
3,5,5.4|
3,6,5.4|
3,7,9.7|
4,0,9.3|
4,1,9.1|
4,2,2.6|
4,3,4.2|
4,4,2.3|
4,5,7.9|
4,6,1.6|
4,7,5.5|
5,0,4.2|
5,1,9.4|
5,2,4.3|
5,3,1.4|
5,4,9.1|
5,5,1.3|
5,6,4.2|
5,7,2.8|
6,0,6.3|
6,1,0.062|
6,2,4.9|
6,3,7|
6,4,1.6|
6,5,9.4|
6,6,3.4|
6,7,0.072|
7,0,9.5|
7,1,9.2|
7,2,8.3|
7,3,6.5|
7,4,2.7|
7,5,8.9|
7,6,5.9|
7,7,5|
];
constraint_x7_x3=[
0,0,4.8|
0,1,0.92|
0,2,0.84|
0,3,4.2|
0,4,5.8|
0,5,6.4|
0,6,6.2|
0,7,1.4|
1,0,0.89|
1,1,5.9|
1,2,8.8|
1,3,8.2|
1,4,4.3|
1,5,5.6|
1,6,0.37|
1,7,5.1|
2,0,3.8|
2,1,5.6|
2,2,7|
2,3,4.4|
2,4,1.9|
2,5,5.7|
2,6,5.4|
2,7,4.3|
3,0,6.7|
3,1,9.5|
3,2,3.6|
3,3,3.8|
3,4,8.7|
3,5,2.9|
3,6,5.9|
3,7,2.7|
4,0,5.8|
4,1,2.2|
4,2,3.1|
4,3,0.75|
4,4,2.8|
4,5,1.1|
4,6,9.6|
4,7,0.45|
5,0,0.97|
5,1,6.1|
5,2,5.3|
5,3,8.2|
5,4,2.1|
5,5,9.5|
5,6,7.8|
5,7,8.2|
6,0,9|
6,1,3.1|
6,2,9|
6,3,6.1|
6,4,6.8|
6,5,8.8|
6,6,5.1|
6,7,6.1|
7,0,2.6|
7,1,3.1|
7,2,5.5|
7,3,9.7|
7,4,6.1|
7,5,4.5|
7,6,3.3|
7,7,7.6|
];
constraint_x8_x4=[
0,0,1.5|
0,1,0.92|
0,2,1.7|
0,3,0.1|
0,4,2.5|
0,5,1.2|
0,6,1|
0,7,6.5|
1,0,5.8|
1,1,4.6|
1,2,8.4|
1,3,6.2|
1,4,5.4|
1,5,5.4|
1,6,0.27|
1,7,5.8|
2,0,0.17|
2,1,8.4|
2,2,7.5|
2,3,6|
2,4,9.5|
2,5,8.3|
2,6,8.8|
2,7,4.3|
3,0,5.5|
3,1,2.7|
3,2,7.1|
3,3,0.15|
3,4,2|
3,5,4.8|
3,6,9.9|
3,7,9.2|
4,0,8.4|
4,1,4.7|
4,2,1.1|
4,3,5.9|
4,4,7.2|
4,5,9.5|
4,6,9.9|
4,7,3.7|
5,0,5.3|
5,1,7.1|
5,2,2.6|
5,3,9.2|
5,4,5.8|
5,5,5.1|
5,6,9|
5,7,4.4|
6,0,9.4|
6,1,4.4|
6,2,5.4|
6,3,1.6|
6,4,4.5|
6,5,7.4|
6,6,6.8|
6,7,7.8|
7,0,7.9|
7,1,1.1|
7,2,2|
7,3,4.8|
7,4,6.7|
7,5,3.1|
7,6,4.8|
7,7,9.8|
];
constraint_x9_x5=[
0,0,6.5|
0,1,4.2|
0,2,8.4|
0,3,9.9|
0,4,6.8|
0,5,1.7|
0,6,3.4|
0,7,6.4|
1,0,0.58|
1,1,9|
1,2,3.8|
1,3,2.6|
1,4,1.3|
1,5,7.5|
1,6,2.3|
1,7,8.8|
2,0,7.2|
2,1,2.1|
2,2,3.7|
2,3,3.2|
2,4,2.9|
2,5,3.6|
2,6,7.8|
2,7,8.7|
3,0,0.53|
3,1,2.5|
3,2,9.6|
3,3,7.3|
3,4,0.67|
3,5,7.4|
3,6,9.2|
3,7,8.1|
4,0,6.4|
4,1,6.3|
4,2,3.7|
4,3,3.3|
4,4,2.9|
4,5,1.1|
4,6,7.9|
4,7,4.7|
5,0,1.9|
5,1,7.6|
5,2,1.7|
5,3,6.8|
5,4,4.1|
5,5,4.1|
5,6,6|
5,7,8.4|
6,0,1.2|
6,1,9.5|
6,2,8|
6,3,5.8|
6,4,6.6|
6,5,0.78|
6,6,6.6|
6,7,8.9|
7,0,4.7|
7,1,8.1|
7,2,6.1|
7,3,4.1|
7,4,5.5|
7,5,3.4|
7,6,8.9|
7,7,3.4|
];
constraint_x10_x6=[
0,0,2.8|
0,1,7.4|
0,2,4.8|
0,3,4.4|
0,4,1.4|
0,5,1.7|
0,6,8.6|
0,7,5.4|
1,0,9.4|
1,1,7.8|
1,2,3.8|
1,3,3.7|
1,4,7.3|
1,5,4.1|
1,6,1.1|
1,7,8.9|
2,0,0.54|
2,1,7.8|
2,2,8.1|
2,3,0.63|
2,4,1.8|
2,5,7.1|
2,6,0.74|
2,7,8.9|
3,0,7.4|
3,1,1.9|
3,2,2|
3,3,5|
3,4,0.21|
3,5,0.25|
3,6,3|
3,7,3.9|
4,0,7.3|
4,1,0.78|
4,2,1.8|
4,3,7.3|
4,4,9.1|
4,5,3.3|
4,6,4.4|
4,7,7.4|
5,0,1.4|
5,1,2.8|
5,2,7.1|
5,3,6.7|
5,4,3.8|
5,5,0.12|
5,6,7|
5,7,6.6|
6,0,0.21|
6,1,2.4|
6,2,9.9|
6,3,2.4|
6,4,5.1|
6,5,6.2|
6,6,4.8|
6,7,8.6|
7,0,9.8|
7,1,9|
7,2,8.4|
7,3,4.2|
7,4,4.9|
7,5,6|
7,6,0.5|
7,7,0.018|
];
constraint_x11_x7=[
0,0,9.2|
0,1,7.1|
0,2,1.2|
0,3,2.6|
0,4,8.1|
0,5,3.5|
0,6,3.2|
0,7,8.1|
1,0,8.4|
1,1,1.1|
1,2,3.5|
1,3,3.9|
1,4,5.4|
1,5,3.2|
1,6,1.9|
1,7,6.1|
2,0,4.6|
2,1,8.5|
2,2,2.9|
2,3,8.7|
2,4,7.5|
2,5,8.2|
2,6,9.8|
2,7,2|
3,0,3.5|
3,1,9|
3,2,9.2|
3,3,7|
3,4,7.8|
3,5,4.1|
3,6,5.1|
3,7,0.14|
4,0,4.8|
4,1,0.51|
4,2,3.3|
4,3,4.8|
4,4,7.3|
4,5,2.8|
4,6,7.4|
4,7,9.1|
5,0,6.8|
5,1,4.5|
5,2,2.8|
5,3,1.7|
5,4,8.2|
5,5,0.78|
5,6,0.65|
5,7,8.3|
6,0,0.72|
6,1,6.8|
6,2,2.4|
6,3,2|
6,4,9.4|
6,5,3.3|
6,6,7.9|
6,7,8.5|
7,0,8.3|
7,1,9|
7,2,2.5|
7,3,0.43|
7,4,8.5|
7,5,2.8|
7,6,2.1|
7,7,4.8|
];
constraint_x12_x8=[
0,0,5.4|
0,1,9.3|
0,2,5.2|
0,3,5.9|
0,4,7.8|
0,5,10|
0,6,5|
0,7,5.6|
1,0,0.96|
1,1,0.6|
1,2,8.9|
1,3,4|
1,4,0.088|
1,5,5.6|
1,6,5.8|
1,7,7.7|
2,0,1.3|
2,1,1.2|
2,2,6.8|
2,3,1.6|
2,4,9.5|
2,5,0.97|
2,6,2.8|
2,7,3.3|
3,0,4.5|
3,1,6.1|
3,2,5.3|
3,3,0.42|
3,4,5.1|
3,5,7.1|
3,6,4.5|
3,7,5.5|
4,0,9.8|
4,1,8.2|
4,2,6.4|
4,3,8|
4,4,1.7|
4,5,6|
4,6,5.8|
4,7,9.7|
5,0,5.3|
5,1,0.76|
5,2,1.9|
5,3,0.98|
5,4,5.8|
5,5,7.8|
5,6,0.97|
5,7,4.4|
6,0,4.3|
6,1,1.9|
6,2,9.7|
6,3,7.3|
6,4,5.4|
6,5,3.1|
6,6,1.9|
6,7,8.2|
7,0,2.4|
7,1,9.1|
7,2,4.8|
7,3,1.3|
7,4,9.3|
7,5,4|
7,6,1.5|
7,7,4.3|
];
constraint_x13_x9=[
0,0,8.7|
0,1,8.4|
0,2,1.4|
0,3,8.8|
0,4,7|
0,5,8.9|
0,6,8.5|
0,7,10|
1,0,2.7|
1,1,0.22|
1,2,3.1|
1,3,2.7|
1,4,5.2|
1,5,5.5|
1,6,7.8|
1,7,3.5|
2,0,2.2|
2,1,7.7|
2,2,8.6|
2,3,4.5|
2,4,9.5|
2,5,8.2|
2,6,8.6|
2,7,8|
3,0,1.2|
3,1,0.11|
3,2,5.1|
3,3,6.5|
3,4,1.2|
3,5,7.9|
3,6,3.8|
3,7,4.8|
4,0,0.84|
4,1,7.6|
4,2,6|
4,3,6.7|
4,4,8.5|
4,5,3.2|
4,6,3.4|
4,7,2.7|
5,0,1|
5,1,3.6|
5,2,6.8|
5,3,3.7|
5,4,8.5|
5,5,3.9|
5,6,8.8|
5,7,8.4|
6,0,3|
6,1,1.1|
6,2,8.1|
6,3,8|
6,4,7.1|
6,5,5.6|
6,6,7.5|
6,7,2.2|
7,0,2.9|
7,1,8.1|
7,2,1|
7,3,7.4|
7,4,0.89|
7,5,7.2|
7,6,2.7|
7,7,4.5|
];
constraint_x14_x10=[
0,0,2.1|
0,1,7.5|
0,2,7.3|
0,3,3.2|
0,4,5.4|
0,5,8.6|
0,6,4.9|
0,7,3.8|
1,0,6.6|
1,1,7.4|
1,2,0.2|
1,3,6.9|
1,4,7|
1,5,5.4|
1,6,2.1|
1,7,7.9|
2,0,0.48|
2,1,3.9|
2,2,0.54|
2,3,9.9|
2,4,4.3|
2,5,6.8|
2,6,8.6|
2,7,5|
3,0,7.1|
3,1,7.6|
3,2,5.2|
3,3,6.2|
3,4,8.5|
3,5,9.5|
3,6,7.4|
3,7,5.4|
4,0,6.6|
4,1,9.6|
4,2,7.4|
4,3,4.6|
4,4,7.1|
4,5,6.8|
4,6,6.4|
4,7,9.5|
5,0,8|
5,1,6.6|
5,2,2.5|
5,3,3.3|
5,4,5.1|
5,5,2.6|
5,6,7.6|
5,7,7.1|
6,0,8.7|
6,1,8.6|
6,2,3.4|
6,3,1.8|
6,4,8.6|
6,5,2.2|
6,6,8.5|
6,7,5|
7,0,9.4|
7,1,8.1|
7,2,5.8|
7,3,9.5|
7,4,7.5|
7,5,7.8|
7,6,4.9|
7,7,6.6|
];
constraint_x15_x11=[
0,0,6.4|
0,1,7.2|
0,2,5.9|
0,3,1.3|
0,4,8.2|
0,5,0.29|
0,6,8.9|
0,7,9.8|
1,0,6|
1,1,9|
1,2,6.5|
1,3,9.9|
1,4,1.3|
1,5,7.3|
1,6,6.3|
1,7,6.9|
2,0,7.1|
2,1,8.2|
2,2,9.7|
2,3,0.25|
2,4,2.6|
2,5,4.4|
2,6,8.9|
2,7,3.7|
3,0,4.4|
3,1,6.8|
3,2,3.2|
3,3,9.8|
3,4,7|
3,5,1.5|
3,6,9.5|
3,7,4.4|
4,0,7.3|
4,1,0.89|
4,2,6.7|
4,3,5|
4,4,7.1|
4,5,7|
4,6,9.5|
4,7,2.9|
5,0,1.6|
5,1,3.4|
5,2,6.5|
5,3,3.5|
5,4,9.1|
5,5,5.4|
5,6,8.2|
5,7,3.6|
6,0,8.4|
6,1,6.1|
6,2,9|
6,3,0.65|
6,4,7.6|
6,5,2.9|
6,6,1.6|
6,7,2.8|
7,0,6.9|
7,1,6|
7,2,1.8|
7,3,0.79|
7,4,5.5|
7,5,5|
7,6,2.7|
7,7,0.1|
];
constraint_x16_x12=[
0,0,1.8|
0,1,5.7|
0,2,1.2|
0,3,6.6|
0,4,0.25|
0,5,7.9|
0,6,2.7|
0,7,4.6|
1,0,5.5|
1,1,1.1|
1,2,3.4|
1,3,5|
1,4,7.2|
1,5,3.6|
1,6,5.4|
1,7,5.9|
2,0,5.9|
2,1,3.1|
2,2,2.5|
2,3,4.5|
2,4,9.8|
2,5,9.5|
2,6,4.6|
2,7,9.5|
3,0,8.6|
3,1,5.5|
3,2,0.56|
3,3,3.1|
3,4,6.5|
3,5,5.5|
3,6,5.3|
3,7,5.6|
4,0,2.1|
4,1,3.3|
4,2,5.1|
4,3,6.1|
4,4,2|
4,5,0.7|
4,6,3.4|
4,7,6.1|
5,0,6|
5,1,5.4|
5,2,6.1|
5,3,8.5|
5,4,4.5|
5,5,4.7|
5,6,6.8|
5,7,2.2|
6,0,6.1|
6,1,4|
6,2,4.9|
6,3,6.2|
6,4,8.4|
6,5,2.4|
6,6,5.9|
6,7,2.7|
7,0,3.6|
7,1,0.28|
7,2,1.4|
7,3,2.3|
7,4,9.8|
7,5,5.4|
7,6,7.9|
7,7,1.4|
];
constraint_x17_x13=[
0,0,8.3|
0,1,3.2|
0,2,3.4|
0,3,3.4|
0,4,6.2|
0,5,0.5|
0,6,10|
0,7,9.6|
1,0,0.13|
1,1,2.7|
1,2,5.4|
1,3,2.3|
1,4,8.9|
1,5,2|
1,6,8.7|
1,7,7.4|
2,0,0.77|
2,1,0.29|
2,2,4.2|
2,3,8.4|
2,4,6.4|
2,5,5.7|
2,6,0.056|
2,7,4.8|
3,0,2.2|
3,1,5|
3,2,9.5|
3,3,7.1|
3,4,9.1|
3,5,9.7|
3,6,5|
3,7,4.5|
4,0,7.5|
4,1,3.5|
4,2,1.6|
4,3,6|
4,4,9|
4,5,8.5|
4,6,0.1|
4,7,0.92|
5,0,1.9|
5,1,4|
5,2,6.3|
5,3,0.66|
5,4,2.8|
5,5,7.8|
5,6,8.7|
5,7,2.1|
6,0,3.2|
6,1,9.1|
6,2,8.7|
6,3,6.1|
6,4,8.8|
6,5,1.7|
6,6,3.4|
6,7,4.2|
7,0,8.8|
7,1,6.7|
7,2,7.3|
7,3,6.9|
7,4,2.8|
7,5,7.1|
7,6,8|
7,7,1.7|
];
constraint_x18_x14=[
0,0,0.048|
0,1,8.2|
0,2,5.2|
0,3,0.52|
0,4,6.1|
0,5,3.9|
0,6,8.3|
0,7,9.3|
1,0,9.5|
1,1,6.7|
1,2,2.3|
1,3,0.63|
1,4,2.2|
1,5,3.1|
1,6,6.7|
1,7,2.7|
2,0,5.4|
2,1,9.9|
2,2,4.7|
2,3,5.2|
2,4,7.1|
2,5,4.2|
2,6,3.4|
2,7,8.7|
3,0,4.3|
3,1,3.3|
3,2,9.5|
3,3,9.9|
3,4,5.8|
3,5,2.5|
3,6,8.1|
3,7,7.3|
4,0,1.2|
4,1,5.7|
4,2,6|
4,3,8.2|
4,4,7.6|
4,5,2.9|
4,6,2.9|
4,7,5.8|
5,0,7.4|
5,1,2.7|
5,2,8|
5,3,7.9|
5,4,4|
5,5,0.63|
5,6,3.5|
5,7,5.3|
6,0,4.9|
6,1,7.2|
6,2,9.8|
6,3,5.9|
6,4,3.6|
6,5,6.9|
6,6,7.1|
6,7,3.2|
7,0,9.3|
7,1,2.8|
7,2,7.6|
7,3,2|
7,4,0.066|
7,5,8.4|
7,6,7.7|
7,7,4.7|
];
constraint_x19_x15=[
0,0,1.3|
0,1,3.5|
0,2,5.8|
0,3,8.5|
0,4,6.5|
0,5,1.9|
0,6,8|
0,7,6.7|
1,0,3.7|
1,1,2.2|
1,2,3.4|
1,3,5.7|
1,4,2.3|
1,5,1.2|
1,6,0.78|
1,7,3.9|
2,0,7|
2,1,2.3|
2,2,5.2|
2,3,10|
2,4,8.5|
2,5,9.9|
2,6,7.5|
2,7,9.5|
3,0,5.7|
3,1,0.27|
3,2,4|
3,3,7|
3,4,4.6|
3,5,1|
3,6,8.7|
3,7,9.6|
4,0,7.3|
4,1,6.7|
4,2,9.4|
4,3,0.8|
4,4,1.9|
4,5,6.9|
4,6,2.3|
4,7,7.5|
5,0,9.4|
5,1,5.8|
5,2,7.3|
5,3,7.7|
5,4,1.6|
5,5,3.8|
5,6,10|
5,7,0.13|
6,0,5.9|
6,1,7.8|
6,2,0.35|
6,3,8.9|
6,4,1.9|
6,5,3.4|
6,6,5.5|
6,7,2.2|
7,0,8|
7,1,7.5|
7,2,5.6|
7,3,6|
7,4,4.7|
7,5,0.8|
7,6,6.4|
7,7,6.6|
];
constraint_x20_x16=[
0,0,0.8|
0,1,9.3|
0,2,9.7|
0,3,8.7|
0,4,7.3|
0,5,7|
0,6,0.32|
0,7,4.9|
1,0,8|
1,1,9|
1,2,3|
1,3,4.5|
1,4,2.7|
1,5,4.9|
1,6,1.8|
1,7,0.78|
2,0,7.4|
2,1,4.7|
2,2,7.5|
2,3,9|
2,4,4.7|
2,5,1.8|
2,6,8.6|
2,7,7.7|
3,0,0.16|
3,1,2.8|
3,2,3.2|
3,3,1.9|
3,4,6.2|
3,5,0.87|
3,6,0.13|
3,7,3|
4,0,5.7|
4,1,6.3|
4,2,6.6|
4,3,8.4|
4,4,9.7|
4,5,4.7|
4,6,8.7|
4,7,6.5|
5,0,0.37|
5,1,6.9|
5,2,2.9|
5,3,5|
5,4,4.8|
5,5,7.6|
5,6,9|
5,7,7.1|
6,0,5.1|
6,1,5.9|
6,2,7.7|
6,3,3.2|
6,4,9.9|
6,5,4.8|
6,6,8.3|
6,7,5.1|
7,0,5.5|
7,1,7.5|
7,2,1.8|
7,3,5.7|
7,4,7.5|
7,5,1.3|
7,6,2.8|
7,7,6|
];
constraint_x1_y1=[
0,0,7|
0,1,5|
0,2,4.2|
0,3,6.3|
0,4,3.8|
0,5,9.9|
0,6,3.8|
0,7,6.8|
1,0,8.9|
1,1,7.7|
1,2,2.7|
1,3,0.79|
1,4,2.5|
1,5,2.4|
1,6,1.1|
1,7,8.6|
2,0,2.3|
2,1,6.7|
2,2,6.2|
2,3,4.5|
2,4,4.9|
2,5,6.6|
2,6,9.1|
2,7,2.3|
3,0,4.9|
3,1,7.1|
3,2,0.94|
3,3,1.9|
3,4,6.1|
3,5,5.5|
3,6,3.8|
3,7,4.1|
4,0,9.3|
4,1,0.68|
4,2,8.4|
4,3,5.1|
4,4,2.2|
4,5,2.9|
4,6,2.6|
4,7,5.9|
5,0,6.2|
5,1,6.5|
5,2,4.5|
5,3,3|
5,4,5.4|
5,5,5|
5,6,4.3|
5,7,2.2|
6,0,3.4|
6,1,7.1|
6,2,7.6|
6,3,5|
6,4,7.8|
6,5,7.4|
6,6,9|
6,7,8.6|
7,0,4.6|
7,1,4.7|
7,2,2|
7,3,9.7|
7,4,5.6|
7,5,7|
7,6,2.2|
7,7,4.8|
];
constraint_x2_y2=[
0,0,7.7|
0,1,6.4|
0,2,0.52|
0,3,2.6|
0,4,6.9|
0,5,7.4|
0,6,8.4|
0,7,3.9|
1,0,2.8|
1,1,4.3|
1,2,1.5|
1,3,4|
1,4,2.5|
1,5,7.2|
1,6,1.8|
1,7,7.5|
2,0,1.2|
2,1,3.3|
2,2,3.8|
2,3,9.1|
2,4,9.7|
2,5,9.5|
2,6,4.3|
2,7,2.6|
3,0,8.6|
3,1,7|
3,2,8|
3,3,1.3|
3,4,3|
3,5,6.3|
3,6,1.8|
3,7,1.6|
4,0,1.6|
4,1,5|
4,2,1.1|
4,3,10|
4,4,3.7|
4,5,4.4|
4,6,9.1|
4,7,4.7|
5,0,5.2|
5,1,4.9|
5,2,0.55|
5,3,2.6|
5,4,3.3|
5,5,2.3|
5,6,0.86|
5,7,0.61|
6,0,5.3|
6,1,4.2|
6,2,5.5|
6,3,2.1|
6,4,2.6|
6,5,8|
6,6,5.7|
6,7,6.8|
7,0,4.8|
7,1,8.8|
7,2,4.8|
7,3,1.8|
7,4,2.5|
7,5,6.7|
7,6,6.1|
7,7,0.5|
];
constraint_x3_y3=[
0,0,5.6|
0,1,1.1|
0,2,0.11|
0,3,9.5|
0,4,2|
0,5,8.7|
0,6,8.6|
0,7,9.3|
1,0,3.6|
1,1,5.9|
1,2,3.7|
1,3,5.7|
1,4,8.6|
1,5,8.3|
1,6,6.8|
1,7,4.9|
2,0,0.34|
2,1,9.2|
2,2,3.8|
2,3,7.3|
2,4,9.2|
2,5,6.4|
2,6,0.5|
2,7,8.7|
3,0,6.2|
3,1,4|
3,2,1.4|
3,3,6.6|
3,4,9.6|
3,5,2.6|
3,6,6.3|
3,7,6.4|
4,0,8|
4,1,0.67|
4,2,8.7|
4,3,6|
4,4,8|
4,5,2.9|
4,6,6.5|
4,7,7.4|
5,0,3.9|
5,1,1.1|
5,2,7.2|
5,3,7.4|
5,4,0.95|
5,5,0.4|
5,6,7.1|
5,7,7.3|
6,0,3.4|
6,1,2.5|
6,2,9|
6,3,0.67|
6,4,7.4|
6,5,2.3|
6,6,5.4|
6,7,1.5|
7,0,1.7|
7,1,3.7|
7,2,3.1|
7,3,0.33|
7,4,3.5|
7,5,5|
7,6,9|
7,7,3.7|
];
constraint_x4_y4=[
0,0,1.3|
0,1,2.3|
0,2,8.1|
0,3,5|
0,4,9.4|
0,5,3.9|
0,6,7.1|
0,7,9.1|
1,0,1.1|
1,1,3.2|
1,2,7.3|
1,3,9.5|
1,4,4.9|
1,5,6.1|
1,6,4.1|
1,7,5.1|
2,0,2.6|
2,1,3.1|
2,2,5.6|
2,3,9.5|
2,4,6.9|
2,5,9.2|
2,6,0.051|
2,7,4.6|
3,0,8.4|
3,1,3.6|
3,2,5.6|
3,3,3.3|
3,4,3.1|
3,5,7|
3,6,4.8|
3,7,6.3|
4,0,2.7|
4,1,4.7|
4,2,4.5|
4,3,1.4|
4,4,0.16|
4,5,1.8|
4,6,9.4|
4,7,4.4|
5,0,8.8|
5,1,1|
5,2,2.1|
5,3,7.6|
5,4,7.4|
5,5,6|
5,6,6.7|
5,7,1.4|
6,0,6.5|
6,1,1.1|
6,2,7|
6,3,4.9|
6,4,7.2|
6,5,6.4|
6,6,6.5|
6,7,8.4|
7,0,6.3|
7,1,6.4|
7,2,6.7|
7,3,1.8|
7,4,5.2|
7,5,9.8|
7,6,1.3|
7,7,1.5|
];
constraint_x5_y5=[
0,0,5.9|
0,1,9.4|
0,2,2.5|
0,3,8.5|
0,4,7.9|
0,5,1.3|
0,6,2.2|
0,7,3.2|
1,0,6.6|
1,1,9.4|
1,2,1|
1,3,2.8|
1,4,7|
1,5,9.9|
1,6,1.5|
1,7,8.1|
2,0,0.42|
2,1,9.7|
2,2,8.6|
2,3,5.3|
2,4,6.6|
2,5,1.4|
2,6,3.4|
2,7,0.2|
3,0,0.49|
3,1,9|
3,2,3|
3,3,2.6|
3,4,7.1|
3,5,6.3|
3,6,7.3|
3,7,1.3|
4,0,5.2|
4,1,4.6|
4,2,3.9|
4,3,7.5|
4,4,3.4|
4,5,4.1|
4,6,4|
4,7,7.4|
5,0,2.1|
5,1,4|
5,2,3.4|
5,3,5.7|
5,4,0.32|
5,5,7.4|
5,6,7.9|
5,7,9.6|
6,0,0.95|
6,1,3.9|
6,2,0.097|
6,3,6.2|
6,4,1.7|
6,5,5.7|
6,6,8.2|
6,7,4.6|
7,0,3|
7,1,5.3|
7,2,4.7|
7,3,10|
7,4,7.7|
7,5,0.083|
7,6,7.8|
7,7,0.18|
];
constraint_x6_y6=[
0,0,6.8|
0,1,8.3|
0,2,8.8|
0,3,1|
0,4,3.1|
0,5,6.1|
0,6,1.4|
0,7,3.6|
1,0,1.8|
1,1,2.7|
1,2,1.2|
1,3,8.1|
1,4,8.1|
1,5,6.9|
1,6,8.7|
1,7,1|
2,0,3.7|
2,1,5.5|
2,2,1.7|
2,3,2.5|
2,4,9.8|
2,5,5.6|
2,6,2.8|
2,7,7.1|
3,0,9.7|
3,1,7.5|
3,2,0.88|
3,3,9.4|
3,4,0.7|
3,5,9|
3,6,0.13|
3,7,7.5|
4,0,1.8|
4,1,3.6|
4,2,5.6|
4,3,4.6|
4,4,8.1|
4,5,2.9|
4,6,0.52|
4,7,1.9|
5,0,6.2|
5,1,1.9|
5,2,7.2|
5,3,8|
5,4,2|
5,5,8.2|
5,6,9.2|
5,7,9.7|
6,0,8.1|
6,1,8.5|
6,2,8.9|
6,3,6.6|
6,4,3.3|
6,5,6.1|
6,6,4.6|
6,7,6.1|
7,0,8.8|
7,1,7.4|
7,2,5|
7,3,3.2|
7,4,8.4|
7,5,1.8|
7,6,6.6|
7,7,0.56|
];
constraint_x7_y7=[
0,0,4.3|
0,1,7.1|
0,2,5.6|
0,3,8.6|
0,4,9.2|
0,5,6|
0,6,9.1|
0,7,0.61|
1,0,3.3|
1,1,0.71|
1,2,2.7|
1,3,9|
1,4,9.1|
1,5,1.7|
1,6,0.13|
1,7,1.9|
2,0,7.6|
2,1,5.7|
2,2,7.1|
2,3,1.5|
2,4,9.2|
2,5,2.7|
2,6,5.9|
2,7,0.35|
3,0,7.5|
3,1,6.9|
3,2,7.1|
3,3,7.9|
3,4,8.5|
3,5,5.8|
3,6,5.6|
3,7,1.1|
4,0,7.1|
4,1,7|
4,2,9.8|
4,3,5.7|
4,4,0.89|
4,5,3|
4,6,8.3|
4,7,6.1|
5,0,4.2|
5,1,7.6|
5,2,0.093|
5,3,5.8|
5,4,7.1|
5,5,7.4|
5,6,6.1|
5,7,9.1|
6,0,4.2|
6,1,1.9|
6,2,8|
6,3,8|
6,4,1.2|
6,5,1.6|
6,6,9.6|
6,7,0.81|
7,0,8|
7,1,8.3|
7,2,6.9|
7,3,3.3|
7,4,6|
7,5,6|
7,6,1.5|
7,7,3.7|
];
constraint_x8_y8=[
0,0,4.2|
0,1,7.6|
0,2,8.8|
0,3,1.6|
0,4,0.76|
0,5,6.3|
0,6,9.9|
0,7,5|
1,0,6.3|
1,1,8.3|
1,2,0.38|
1,3,0.53|
1,4,6.4|
1,5,9.5|
1,6,3.7|
1,7,7.1|
2,0,5.8|
2,1,3|
2,2,6.4|
2,3,1.3|
2,4,0.62|
2,5,2.5|
2,6,0.65|
2,7,4.5|
3,0,8.1|
3,1,7.9|
3,2,2.7|
3,3,9.4|
3,4,0.96|
3,5,10|
3,6,5.3|
3,7,1.6|
4,0,7.8|
4,1,2.7|
4,2,1.4|
4,3,9.9|
4,4,1.3|
4,5,4.4|
4,6,2.3|
4,7,3.6|
5,0,5.8|
5,1,0.86|
5,2,8.1|
5,3,3.4|
5,4,4|
5,5,1.5|
5,6,5.7|
5,7,1.2|
6,0,8.3|
6,1,1.3|
6,2,9.3|
6,3,0.26|
6,4,1.4|
6,5,8.6|
6,6,1.4|
6,7,3.4|
7,0,1.2|
7,1,5.2|
7,2,7|
7,3,6.9|
7,4,0.084|
7,5,6|
7,6,1.7|
7,7,5.7|
];
constraint_x9_y9=[
0,0,10|
0,1,0.55|
0,2,1.4|
0,3,6.2|
0,4,8.3|
0,5,9.8|
0,6,3.5|
0,7,3.6|
1,0,1.4|
1,1,1.2|
1,2,1.9|
1,3,8.9|
1,4,4.4|
1,5,5.9|
1,6,7.4|
1,7,7.7|
2,0,8.1|
2,1,3.3|
2,2,4.5|
2,3,6|
2,4,8.4|
2,5,6.1|
2,6,2.9|
2,7,2.1|
3,0,0.061|
3,1,7.6|
3,2,4|
3,3,6.2|
3,4,1.7|
3,5,4.2|
3,6,4.9|
3,7,1.4|
4,0,0.45|
4,1,0.81|
4,2,3|
4,3,4.1|
4,4,8.8|
4,5,2.3|
4,6,8.9|
4,7,6.2|
5,0,6.8|
5,1,6.2|
5,2,8|
5,3,2.7|
5,4,0.26|
5,5,2.7|
5,6,6.8|
5,7,6.3|
6,0,0.53|
6,1,3.5|
6,2,10|
6,3,3.5|
6,4,7.1|
6,5,9|
6,6,2.6|
6,7,5.1|
7,0,2.8|
7,1,5.1|
7,2,9|
7,3,6.9|
7,4,2|
7,5,0.42|
7,6,4.6|
7,7,3.3|
];
initial_distribution_y1=[0.16,0.14,0.11,0.078,0.11,0.13,0.17,0.099];
initial_distribution_y2=[0.19,0.18,0.029,0.028,0.067,0.19,0.2,0.11];
initial_distribution_y3=[0.18,0.032,0.21,0.16,0.15,0.1,0.01,0.15];
initial_distribution_y4=[0.045,0.093,0.0075,0.2,0.25,0.19,0.051,0.17];
initial_distribution_y5=[0.11,0.15,0.18,0.0047,0.1,0.073,0.2,0.19];
initial_distribution_y6=[0.21,0.056,0.14,0.16,0.1,0.16,0.029,0.15];
initial_distribution_y7=[0.017,0.027,0.24,0.0086,0.16,0.11,0.14,0.29];
initial_distribution_y8=[0.15,0.1,0.19,0.078,0.13,0.048,0.18,0.13];
initial_distribution_y9=[0.18,0.075,0.17,0.25,0.034,0.19,0.038,0.069];
transition_y1=[
0.18,0.024,0.047,0.28,0.11,0.11,0.19,0.054|
0.16,0.19,0.1,0.16,0.011,0.03,0.16,0.19|
0.11,0.11,0.064,0.14,0.16,0.2,0.11,0.11|
0.3,0.1,0.33,0.013,0.12,0.07,0.019,0.034|
0.13,0.038,0.2,0.036,0.11,0.17,0.19,0.13|
0.17,0.19,0.19,0.071,0.16,0.18,0.023,0.012|
0.19,0.15,0.014,0.19,0.06,0.23,0.14,0.031|
0.084,0.12,0.17,0.021,0.12,0.17,0.15,0.17|
];
transition_y2=[
0.021,0.019,0.27,0.14,0.084,0.18,0.27,0.018|
0.21,0.15,0.26,0.058,0.069,0.039,0.15,0.071|
0.11,0.024,0.045,0.13,0.13,0.18,0.18,0.21|
0.12,0.21,0.14,0.13,0.037,0.043,0.14,0.17|
0.073,0.18,0.21,0.16,0.03,0.16,0.085,0.1|
0.085,0.083,0.22,0.098,0.26,0.13,0.13,0.0033|
0.0042,0.15,0.064,0.18,0.19,0.032,0.22,0.16|
0.15,0.15,0.11,0.06,0.21,0.06,0.095,0.17|
];
transition_y3=[
0.16,0.25,0.078,0.023,0.0077,0.052,0.18,0.24|
0.14,0.027,0.12,0.16,0.19,0.089,0.087,0.18|
0.18,0.17,0.16,0.11,0.12,0.038,0.14,0.082|
0.22,0.021,0.047,0.11,0.18,0.19,0.09,0.16|
0.074,0.12,0.047,0.088,0.19,0.17,0.16,0.15|
0.01,0.069,0.21,0.092,0.21,0.17,0.21,0.037|
0.066,0.054,0.24,0.099,0.18,0.0083,0.12,0.23|
0.15,0.16,0.07,0.01,0.23,0.23,0.037,0.11|
];
transition_y4=[
0.022,0.026,0.22,0.13,0.079,0.19,0.12,0.22|
0.022,0.038,0.067,0.14,0.27,0.15,0.18,0.14|
0.22,0.11,0.064,0.05,0.18,0.094,0.069,0.22|
0.13,0.022,0.34,0.34,0.0048,0.1,0.0063,0.051|
0.053,0.14,0.053,0.066,0.25,0.028,0.014,0.4|
0.15,0.025,0.085,0.16,0.17,0.21,0.2,0.0049|
0.11,0.16,0.11,0.073,0.27,0.043,0.074,0.17|
0.16,0.083,0.2,0.085,0.023,0.22,0.16,0.063|
];
transition_y5=[
0.03,0.14,0.18,0.016,0.17,0.14,0.2,0.12|
0.19,0.13,0.038,0.22,0.1,0.046,0.21,0.061|
0.18,0.12,0.11,0.18,0.14,0.084,0.15,0.04|
0.1,0.076,0.16,0.18,0.073,0.17,0.14,0.1|
0.26,0.21,0.018,0.17,0.09,0.028,0.064,0.16|
0.22,0.099,0.098,0.096,0.086,0.16,0.084,0.15|
0.19,0.0091,0.24,0.15,0.039,0.17,0.15,0.054|
0.15,0.016,0.085,0.13,0.11,0.17,0.25,0.085|
];
transition_y6=[
0.12,0.11,0.079,0.22,0.078,0.19,0.1,0.11|
0.088,0.11,0.065,0.15,0.18,0.11,0.16,0.14|
0.12,0.14,0.18,0.055,0.18,0.1,0.12,0.093|
0.039,0.2,0.0066,0.25,0.0099,0.16,0.11,0.23|
0.097,0.19,0.14,0.016,0.15,0.16,0.12,0.12|
0.15,0.028,0.069,0.17,0.18,0.19,0.024,0.19|
0.056,0.14,0.1,0.21,0.18,0.012,0.093,0.2|
0.023,0.18,0.044,0.14,0.093,0.12,0.18,0.22|
];
transition_y7=[
0.14,0.13,0.15,0.042,0.13,0.16,0.12,0.11|
0.18,0.061,0.042,0.081,0.19,0.19,0.2,0.059|
0.056,0.1,0.13,0.13,0.085,0.19,0.11,0.18|
0.15,0.14,0.14,0.11,0.12,0.15,0.067,0.13|
0.16,0.063,0.11,0.087,0.13,0.14,0.17,0.14|
0.18,0.036,0.16,0.19,0.15,0.017,0.12,0.14|
0.16,0.087,0.1,0.16,0.11,0.18,0.042,0.17|
0.058,0.062,0.25,0.15,0.23,0.047,0.099,0.1|
];
transition_y8=[
0.16,0.16,0.18,0.098,0.022,0.21,0.14,0.024|
0.088,0.14,0.16,0.21,0.066,0.1,0.065,0.17|
0.19,0.1,0.052,0.074,0.024,0.17,0.17,0.21|
0.12,0.16,0.028,0.14,0.13,0.13,0.16,0.14|
0.15,0.09,0.039,0.14,0.19,0.075,0.23,0.092|
0.14,0.2,0.17,0.065,0.055,0.11,0.14,0.11|
0.19,0.22,0.023,0.23,0.038,0.097,0.17,0.03|
0.21,0.072,0.079,0.28,0.024,0.078,0.025,0.22|
];
transition_y9=[
0.19,0.094,0.19,0.022,0.16,0.14,0.16,0.038|
0.26,0.17,0.14,0.13,0.14,0.11,0.034,0.024|
0.15,0.078,0.069,0.1,0.078,0.16,0.2,0.17|
0.076,0.24,0.12,0.0057,0.039,0.24,0.23,0.06|
0.1,0.0036,0.2,0.16,0.043,0.15,0.16,0.18|
0.044,0.098,0.21,0.031,0.1,0.22,0.22,0.073|
0.0044,0.21,0.091,0.12,0.19,0.0056,0.2,0.19|
0.17,0.017,0.19,0.073,0.13,0.13,0.19,0.11|
];
